% File represents an instance of a Composite Structure problem to be solved by a CP framework
% Created on 2025-03-26 10:41:40.883
T = 56;
n = 25;
m = 40;
edges = [(2, 1),
(7, 6),
(11, 12),
(16, 17),
(21, 22),
(2, 3),
(7, 8),
(12, 13),
(18, 17),
(22, 23),
(3, 4),
(8, 9),
(14, 13),
(19, 18),
(24, 23),
(5, 4),
(9, 10),
(14, 15),
(19, 20),
(25, 24),
(6, 1),
(11, 6),
(11, 16),
(21, 16),
(7, 2),
(7, 12),
(12, 17),
(22, 17),
(8, 3),
(8, 13),
(18, 13),
(18, 23),
(9, 4),
(14, 9),
(19, 14),
(19, 24),
(5, 10),
(15, 10),
(20, 15),
(20, 25)];
counts = [|14, 2, 14, 18,
|14, 2, 14, 20,
|14, 2, 14, 18,
|12, 2, 12, 16,
|14, 4, 14, 16,
|14, 4, 14, 18,
|14, 4, 14, 20,
|14, 4, 14, 18,
|14, 4, 14, 16,
|14, 4, 14, 12,
|14, 6, 14, 20,
|14, 2, 14, 20,
|14, 2, 14, 18,
|16, 4, 16, 18,
|14, 4, 14, 18,
|14, 4, 14, 16,
|14, 2, 14, 16,
|14, 6, 14, 18,
|16, 6, 16, 18,
|16, 4, 16, 18,
|14, 6, 14, 18,
|14, 4, 14, 16,
|14, 2, 14, 16,
|16, 2, 16, 16,
|16, 4, 16, 16|];
